param t : 1 2 3 4 5 6 7 8 9 10 :=
1 84 68 97 98 64 89 82 71 74 76
2 87 83 98 75 60 90 78 67 92 94
3 84 68 70 81 67 61 73 92 86 90
4 79 62 86 79 73 84 76 98 84 90
5 62 72 66 72 92 80 71 91 87 70
6 85 77 63 93 90 94 76 81 99 98
7 76 63 66 84 94 93 72 92 79 65
8 76 63 92 69 60 88 79 93 66 73
9 92 82 77 72 77 81 89 95 80 80
10 888 89 83 86 69 78 91 64 94 92 ;
